This is Ipopt version 3.14.4, running with linear solver MUMPS 5.4.1.

Number of nonzeros in equality constraint Jacobian...:    83858
Number of nonzeros in inequality constraint Jacobian.:       21
Number of nonzeros in Lagrangian Hessian.............:        0

Total number of variables............................:     3900
                     variables with only lower bounds:        0
                variables with lower and upper bounds:        0
                     variables with only upper bounds:        0
Total number of equality constraints.................:     3564
Total number of inequality constraints...............:        3
        inequality constraints with only lower bounds:        0
   inequality constraints with lower and upper bounds:        3
        inequality constraints with only upper bounds:        0

iter    objective    inf_pr   inf_du lg(mu)  ||d||  lg(rg) alpha_du alpha_pr  ls
   0  2.8371523e+02 6.90e-01 2.96e+00   0.0 0.00e+00    -  0.00e+00 0.00e+00   0
   1  2.8364256e+02 6.90e-01 1.57e+03  -0.1 1.30e+00    -  2.16e-01 2.87e-04h  1
   2  2.8359185e+02 6.90e-01 3.90e+04   0.2 8.22e+02    -  9.75e-05 1.01e-06f  3
   3  2.8235537e+02 6.90e-01 3.20e+07   1.0 4.98e+02    -  8.88e-02 2.63e-05f  2
   4  7.6976748e+01 1.75e+01 4.97e+07   1.0 8.06e+01    -  4.41e-01 1.56e-01f  1
   5  1.7638733e+02 6.07e+00 1.69e+07   1.0 4.16e+01    -  1.75e-01 1.00e+00h  1
   6  1.7871059e+02 5.97e+00 1.31e+07   1.0 5.26e+01    -  2.26e-01 1.62e-02h  1
   7  4.0527871e+02 1.65e+00 2.93e+06   1.0 5.88e+01    -  7.78e-01 1.00e+00h  1
   8  4.0539966e+02 1.53e+00 2.21e+06   0.8 1.07e+01    -  2.47e-01 7.10e-02h  1
   9  4.1654489e+02 5.54e-01 2.58e+05   0.8 1.42e+01    -  9.92e-01 1.00e+00f  1
iter    objective    inf_pr   inf_du lg(mu)  ||d||  lg(rg) alpha_du alpha_pr  ls
  10  3.9256568e+02 1.60e-01 5.32e+04   0.8 4.80e+01    -  1.00e+00 1.00e+00f  1
  11  3.4760977e+02 1.02e-01 2.23e+04   0.8 2.62e+01    -  1.00e+00 1.00e+00f  1
  12  3.1334091e+02 4.97e-02 4.77e+03   0.8 1.95e+01    -  1.00e+00 1.00e+00f  1
  13  2.9491348e+02 8.10e-02 5.19e+03   0.1 2.43e+01    -  1.00e+00 1.00e+00f  1
  14  3.2275885e+02 4.34e-02 2.79e+03   0.1 3.13e+01    -  1.00e+00 1.00e+00h  1
  15  2.3206601e+02 3.36e-02 1.18e+03   0.1 1.80e+01    -  1.00e+00 1.00e+00f  1
  16  2.1790792e+02 1.18e-02 7.90e+02  -0.9 7.60e+00    -  1.00e+00 1.00e+00f  1
  17  2.0199155e+02 1.35e-03 3.92e+02  -1.5 6.09e+00    -  1.00e+00 1.00e+00f  1
  18  1.9108953e+02 2.93e-03 3.06e+02  -3.1 1.59e+01    -  1.00e+00 8.34e-01f  1
  19  1.8999532e+02 1.12e-01 1.03e+03  -3.2 1.23e+02    -  1.00e+00 5.00e-01f  2
iter    objective    inf_pr   inf_du lg(mu)  ||d||  lg(rg) alpha_du alpha_pr  ls
  20  4.9936213e+02 1.09e-01 1.21e+03  -4.8 5.45e+01    -  1.00e+00 1.00e+00h  1
  21  1.5816459e+02 5.33e-02 7.06e+02  -3.8 5.44e+01    -  1.00e+00 1.00e+00f  1
  22  1.7013159e+02 5.84e-03 1.34e+02  -3.5 8.24e+00    -  1.00e+00 1.00e+00h  1
  23  1.5147727e+02 5.75e-04 7.83e+01  -4.4 3.52e+00    -  1.00e+00 9.83e-01f  1
  24  1.5004469e+02 1.80e-04 3.41e+01  -5.2 3.03e+00    -  1.00e+00 9.15e-01f  1
  25  1.5985996e+02 8.85e-05 3.13e+02  -7.1 3.31e+01    -  1.00e+00 1.00e+00H  1
  26  1.5828398e+02 5.80e-03 5.19e+02  -8.4 3.78e+01    -  1.00e+00 5.00e-01f  2
  27  1.8140193e+02 4.30e-04 5.04e+02  -6.7 2.49e+01    -  1.00e+00 1.00e+00H  1
  28  1.3742829e+02 4.01e-03 3.68e+02  -6.7 9.93e+00    -  1.00e+00 1.00e+00f  1
  29  1.3277606e+02 9.57e-04 1.36e+02  -7.6 8.36e+00    -  1.00e+00 1.00e+00f  1
iter    objective    inf_pr   inf_du lg(mu)  ||d||  lg(rg) alpha_du alpha_pr  ls
  30  1.3002611e+02 4.90e-04 4.16e+01  -9.6 3.87e+00    -  1.00e+00 1.00e+00f  1
  31  1.2893224e+02 9.94e-04 4.08e+01 -11.0 3.29e+00    -  1.00e+00 1.00e+00f  1
  32  1.2625514e+02 1.21e-03 6.29e+01 -11.0 3.92e+00    -  1.00e+00 1.00e+00f  1
  33  1.2990980e+02 2.85e-04 1.32e+02 -11.0 1.50e+01    -  1.00e+00 1.00e+00H  1
  34  1.4032640e+02 2.64e-05 1.30e+02 -11.0 1.26e+01    -  1.00e+00 1.00e+00H  1
  35  1.2495297e+02 2.96e-04 9.90e+01 -11.0 4.36e+00    -  1.00e+00 1.00e+00f  1
  36  1.1699558e+02 5.36e-04 2.23e+01  -9.0 2.57e+00    -  6.57e-01 1.00e+00f  1
  37  1.1625450e+02 3.93e-04 1.48e+01  -7.3 2.60e+00    -  3.40e-02 1.00e+00f  1
  38  1.1611464e+02 1.66e-02 7.81e+01  -5.7 1.79e+01    -  6.07e-01 1.00e+00f  1
  39  1.1540817e+02 1.79e-02 1.10e+02  -3.0 9.13e+01    -  2.00e-01 6.81e-02f  4
iter    objective    inf_pr   inf_du lg(mu)  ||d||  lg(rg) alpha_du alpha_pr  ls
  40  1.2748613e+02 3.53e-03 1.30e+02  -4.1 2.07e+01    -  6.91e-01 1.00e+00H  1
  41  1.2442943e+02 1.27e-02 1.14e+02  -3.9 1.54e+01    -  9.90e-01 1.00e+00f  1
  42  1.4460234e+02 3.03e-03 1.68e+02  -3.9 1.26e+01    -  1.00e+00 1.00e+00H  1
  43  1.1315825e+02 5.65e-03 1.02e+02  -3.9 9.82e+00    -  1.00e+00 1.00e+00f  1
  44  1.1149950e+02 3.10e-03 1.98e+02  -4.4 7.75e+00    -  1.00e+00 1.00e+00f  1
  45  1.1551874e+02 2.11e-04 9.74e+01  -5.7 2.52e+00    -  1.00e+00 1.00e+00h  1
  46  1.0902826e+02 4.94e-04 6.61e+01  -6.7 2.32e+00    -  1.00e+00 1.00e+00f  1
  47  1.0881869e+02 3.25e-05 5.44e+00  -8.1 5.31e-01    -  1.00e+00 1.00e+00f  1
  48  1.0737271e+02 7.28e-03 2.90e+01  -9.0 7.30e+00    -  1.00e+00 1.00e+00f  1
  49  1.0696563e+02 1.86e-02 3.01e+01  -7.6 1.03e+02    -  4.06e-02 1.00e-02F  1
iter    objective    inf_pr   inf_du lg(mu)  ||d||  lg(rg) alpha_du alpha_pr  ls
  50  1.0695838e+02 1.89e-02 3.03e+01  -8.1 5.91e+01    -  1.00e+00 3.01e-04F  1
  51  1.0692378e+02 1.95e-02 8.74e+01  -6.2 2.13e+02    -  1.00e+00 3.81e-04F  1
  52  1.0563019e+02 3.87e-02 8.70e+01  -4.3 1.08e+03    -  4.02e-03 2.75e-03F  1
  53  1.0555685e+02 3.86e-02 2.24e+02  -4.5 2.42e+02    -  7.89e-01 1.16e-03f  1
  54  1.0538971e+02 7.32e-02 2.13e+02 -10.9 4.11e+02    -  5.67e-02 4.75e-02f  1
  55  1.0410215e+02 6.95e-02 1.96e+02  -6.4 7.29e+01    -  8.59e-02 6.25e-02f  5
  56  1.0616507e+02 1.89e-02 2.09e+02  -3.7 1.50e+01    -  1.00e+00 1.00e+00h  1
  57  1.0541207e+02 1.82e-02 2.08e+02  -2.2 6.96e+00    -  1.00e+00 3.55e-02f  1
  58  1.0006698e+02 6.65e-03 1.61e+02  -4.1 4.39e+00    -  1.00e+00 1.00e+00f  1
  59  1.0182027e+02 2.29e-03 2.63e+01  -4.5 2.16e+00    -  1.00e+00 9.98e-01h  1
iter    objective    inf_pr   inf_du lg(mu)  ||d||  lg(rg) alpha_du alpha_pr  ls
  60  9.9424481e+01 1.12e-03 1.65e+01  -5.4 1.32e+00    -  1.00e+00 9.89e-01f  1
  61  9.9292037e+01 2.48e-05 4.21e+00  -6.5 1.05e+00    -  1.00e+00 1.00e+00h  1
  62  9.9088631e+01 4.05e-03 2.67e+01  -8.4 1.01e+02    -  1.00e+00 1.25e-01f  4
  63  9.9007907e+01 4.70e-03 3.98e+01  -7.0 5.30e+01    -  1.00e+00 2.50e-01f  3
  64  1.3499326e+02 8.52e-04 1.01e+03  -8.3 6.02e+01    -  1.00e+00 1.00e+00H  1
  65  1.8603365e+02 3.72e-04 3.79e+02  -8.0 4.00e+01    -  1.00e+00 1.00e+00H  1
  66  1.1054944e+02 1.53e-02 8.06e+02  -8.0 6.84e+01    -  1.00e+00 1.00e+00f  1
  67  1.0689616e+02 1.21e-02 7.86e+02  -8.0 2.23e+01    -  1.00e+00 2.50e-01f  3
  68  9.3962239e+01 2.23e-03 2.87e+02  -8.0 2.65e+01    -  1.00e+00 1.00e+00f  1
  69  1.5532412e+02 6.50e-04 9.91e+01  -9.9 1.88e+01    -  1.00e+00 1.00e+00h  1
iter    objective    inf_pr   inf_du lg(mu)  ||d||  lg(rg) alpha_du alpha_pr  ls
  70  9.3240433e+01 6.81e-04 7.73e+01  -9.2 1.89e+01    -  1.00e+00 1.00e+00f  1
  71  9.3201372e+01 9.13e-06 3.39e+00 -11.0 6.15e-01    -  1.00e+00 1.00e+00h  1
  72  9.3015528e+01 9.18e-06 1.92e+00 -11.0 5.91e-01    -  1.00e+00 1.00e+00f  1
  73  9.3302203e+01 3.78e-07 1.30e+01 -11.0 6.57e+00    -  1.00e+00 1.00e+00H  1
  74  9.2531062e+01 4.06e-04 1.53e+01 -11.0 1.62e+01    -  1.00e+00 5.00e-01f  2
  75  1.3267973e+02 2.23e-04 1.17e+02 -11.0 3.95e+01    -  1.00e+00 1.00e+00H  1
  76  9.2714119e+01 5.29e-03 6.24e+01 -11.0 3.05e+01    -  1.00e+00 1.00e+00f  1
  77  1.1766394e+02 9.22e-04 8.59e+01 -11.0 8.81e+00    -  1.00e+00 1.00e+00h  1
  78  9.1372247e+01 9.90e-04 5.60e+01 -11.0 1.11e+01    -  1.00e+00 1.00e+00f  1
  79  9.1358394e+01 2.78e-05 4.08e+00 -11.0 3.10e+00    -  1.00e+00 1.00e+00f  1
iter    objective    inf_pr   inf_du lg(mu)  ||d||  lg(rg) alpha_du alpha_pr  ls
  80  9.1144824e+01 7.63e-04 1.41e+01 -11.0 1.53e+01    -  1.00e+00 1.00e+00f  1
  81  9.0972511e+01 1.21e-03 2.44e+01 -11.0 3.98e+02    -  1.00e+00 3.12e-02f  6
  82  1.9587021e+02 5.39e-04 1.37e+02 -11.0 1.49e+02    -  1.00e+00 1.00e+00H  1
  83  1.2752577e+02 2.22e-02 1.04e+02 -11.0 4.95e+01    -  1.00e+00 1.00e+00f  1
In iteration 83, 1 Slack too small, adjusting variable bound
  84  1.1782692e+02 3.61e-02 4.62e+02 -11.0 1.50e+02    -  1.00e+00 5.43e-01f  1
  85  2.9785765e+02 2.24e-02 7.02e+02 -11.0 3.56e+01    -  1.00e+00 1.00e+00H  1
  86  9.4966331e+01 3.60e-02 9.58e+02 -11.0 6.17e+01    -  1.08e-01 1.00e+00f  1
In iteration 86, 1 Slack too small, adjusting variable bound
  87  9.4966331e+01 3.60e-02 9.58e+02 -11.0 3.42e+01    -  1.00e+00 1.56e-08h  1
  88  9.0419074e+01 2.33e-03 5.58e+01 -11.0 8.74e+00    -  1.00e+00 1.00e+00f  1
  89  9.1133973e+01 1.51e-04 1.41e+01 -11.0 1.94e+00    -  1.00e+00 1.00e+00h  1
iter    objective    inf_pr   inf_du lg(mu)  ||d||  lg(rg) alpha_du alpha_pr  ls
  90  8.8902324e+01 6.99e-05 7.08e+00 -11.0 9.72e-01    -  1.00e+00 1.00e+00f  1
  91  8.8874445e+01 4.94e-06 6.22e-01 -11.0 8.71e-02    -  1.00e+00 1.00e+00h  1
  92  8.8739366e+01 6.32e-04 2.91e+00 -11.0 1.28e+00    -  1.00e+00 1.00e+00f  1
  93  8.9693136e+01 8.70e-05 5.93e+00 -11.0 4.66e+00    -  1.00e+00 1.00e+00H  1
  94  8.8759681e+01 1.39e-03 3.78e+00 -11.0 1.22e+00    -  1.00e+00 1.00e+00f  1
  95  8.8618173e+01 1.05e-04 5.09e+00 -11.0 8.25e-01    -  1.00e+00 1.00e+00f  1
  96  8.8453014e+01 3.75e-05 1.32e+00 -11.0 7.67e-01    -  1.00e+00 1.00e+00f  1
  97  8.8427255e+01 3.16e-06 2.22e-01 -11.0 8.12e-01    -  1.00e+00 1.00e+00f  1
  98  8.8352031e+01 1.38e-04 1.11e+00 -11.0 3.27e+00    -  1.00e+00 1.00e+00f  1
  99  8.8339631e+01 2.14e-03 5.72e+00 -11.0 3.91e+01    -  1.00e+00 2.50e-01f  3
iter    objective    inf_pr   inf_du lg(mu)  ||d||  lg(rg) alpha_du alpha_pr  ls
 100  1.0971254e+02 1.13e-03 2.25e+01 -11.0 3.26e+01    -  1.00e+00 1.00e+00H  1
 101  9.0490999e+01 1.45e-02 2.99e+01 -11.0 1.94e+01    -  1.00e+00 1.00e+00f  1
 102  1.2224559e+02 6.47e-03 1.66e+02 -11.0 4.29e+01    -  5.79e-01 1.00e+00H  1
In iteration 102, 1 Slack too small, adjusting variable bound
 103  1.2224559e+02 6.47e-03 1.66e+02 -11.0 3.41e+01    -  1.00e+00 2.58e-09h  1
 104  3.0044382e+02 2.88e-03 7.65e+02 -11.0 7.79e+01    -  2.72e-01 1.00e+00H  1
 105  1.1187630e+02 5.80e-04 5.95e+02 -11.0 1.37e+01    -  1.00e+00 1.00e+00f  1
 106  1.0489107e+02 5.75e-04 5.24e+02 -11.0 1.96e+01    -  1.00e+00 1.60e-01f  1
 107  9.4814766e+01 3.50e-03 1.53e+02 -11.0 2.34e+01    -  1.00e+00 1.00e+00F  1
 108  1.5359238e+02 1.42e-03 8.68e+01 -11.0 1.37e+01    -  1.00e+00 1.00e+00H  1
In iteration 108, 1 Slack too small, adjusting variable bound
 109  1.3422958e+02 9.81e-04 6.81e+01 -11.0 1.72e+01    -  1.00e+00 1.60e-01f  1
iter    objective    inf_pr   inf_du lg(mu)  ||d||  lg(rg) alpha_du alpha_pr  ls
 110  8.7706871e+01 7.87e-03 8.70e+01 -11.0 1.52e+01    -  1.00e+00 1.00e+00f  1
 111  8.8063231e+01 1.67e-04 2.34e+00 -11.0 6.62e-01    -  1.00e+00 1.00e+00h  1
 112  8.7694814e+01 3.76e-07 1.16e+00  -9.1 3.92e-01    -  1.37e-01 1.00e+00f  1
 113  8.7694809e+01 3.76e-07 6.50e+00 -10.2 9.79e-02    -  1.00e+00 6.35e-04h  1
 114  8.7657806e+01 2.53e-05 8.09e-01  -9.5 8.59e-01    -  1.00e+00 1.00e+00f  1
 115  8.8327025e+01 4.61e-06 2.81e+00 -11.0 4.48e+00    -  1.00e+00 1.00e+00H  1
 116  8.7581488e+01 9.94e-05 1.58e+00 -10.8 1.64e+00    -  1.00e+00 1.00e+00f  1
 117  8.7549133e+01 1.77e-06 5.31e-01 -11.0 3.84e-01    -  1.00e+00 1.00e+00f  1
 118  8.7508415e+01 8.79e-06 5.72e-01 -11.0 8.36e-01    -  1.00e+00 1.00e+00f  1
 119  8.9054838e+01 9.74e-07 6.80e+00  -9.0 1.45e+01    -  5.63e-01 1.00e+00H  1
iter    objective    inf_pr   inf_du lg(mu)  ||d||  lg(rg) alpha_du alpha_pr  ls
 120  8.8208166e+01 1.02e-04 6.71e+00  -9.3 6.94e+00    -  4.15e-03 5.00e-01f  2
 121  8.8251530e+01 6.55e-05 2.07e+01  -9.3 8.96e+00    -  1.00e+00 1.00e+00H  1
 122  8.9517613e+01 1.40e-06 1.20e+01  -9.3 2.30e+00    -  8.20e-01 1.00e+00H  1
 123  8.7303582e+01 4.49e-04 8.76e+00  -9.3 6.09e+00    -  1.00e+00 1.00e+00f  1
 124  8.7565584e+01 2.00e-05 1.14e+00 -10.7 1.08e+00    -  1.00e+00 1.00e+00h  1
 125  8.7261089e+01 1.09e-05 5.99e-01 -10.7 8.36e-01    -  8.36e-01 1.00e+00f  1
 126  8.7251611e+01 5.01e-07 7.29e-02 -11.0 1.65e-01    -  1.00e+00 1.00e+00h  1
 127  8.7179888e+01 7.14e-05 8.36e-01 -11.0 2.23e+00    -  1.00e+00 1.00e+00f  1
 128  1.0698640e+02 8.39e-06 2.34e+01 -10.5 5.56e+01    -  8.09e-01 1.00e+00H  1
 129  9.2231966e+01 9.81e-03 1.59e+01 -10.8 2.92e+01    -  1.00e+00 1.00e+00f  1
iter    objective    inf_pr   inf_du lg(mu)  ||d||  lg(rg) alpha_du alpha_pr  ls
 130  9.2126782e+01 1.43e-02 2.03e+01 -10.8 1.14e+02    -  6.35e-01 2.02e-01f  1
 131  1.0255631e+02 2.15e-03 4.11e+01 -10.8 4.89e+00    -  1.00e+00 1.00e+00h  1
 132  8.6819795e+01 5.05e-03 3.47e+01 -10.8 1.53e+01    -  6.12e-01 1.00e+00f  1
 133  8.7615551e+01 2.25e-05 1.46e+00 -11.0 2.02e+00    -  1.00e+00 1.00e+00h  1
 134  8.6822225e+01 5.71e-06 9.60e-01 -11.0 9.60e-01    -  1.00e+00 1.00e+00f  1
 135  8.6814662e+01 2.07e-06 7.05e-02 -11.0 7.89e-02    -  1.00e+00 1.00e+00h  1
 136  8.6801517e+01 1.46e-04 6.66e-01 -11.0 6.04e-01    -  1.00e+00 1.00e+00f  1
 137  8.7186673e+01 4.41e-06 3.04e+00 -11.0 2.45e+00    -  1.00e+00 1.00e+00H  1
 138  8.6762793e+01 2.96e-04 1.05e+00 -11.0 9.43e-01    -  1.00e+00 1.00e+00f  1
 139  8.6866217e+01 2.69e-05 6.98e-01 -11.0 4.54e-01    -  1.00e+00 1.00e+00h  1
iter    objective    inf_pr   inf_du lg(mu)  ||d||  lg(rg) alpha_du alpha_pr  ls
 140  8.6729166e+01 3.05e-05 3.62e-01 -11.0 3.50e-01    -  1.00e+00 1.00e+00f  1
 141  8.6722312e+01 7.40e-07 1.57e-01 -11.0 4.28e-01    -  1.00e+00 1.00e+00h  1
 142  8.6664736e+01 1.36e-04 2.40e+00 -11.0 5.21e+00    -  1.00e+00 1.00e+00f  1
 143  8.6652211e+01 4.26e-04 6.19e+00 -10.2 2.44e+02    -  1.00e+00 3.42e-02f  5
 144  9.5248344e+01 5.63e-05 2.95e+01 -11.0 7.73e+01    -  1.00e+00 1.00e+00H  1
 145  9.3499836e+01 8.54e-04 4.04e+01 -11.0 1.47e+02    -  4.83e-01 2.10e-01f  3
 146  9.2574553e+01 2.11e-03 3.83e+01 -11.0 4.61e+01    -  1.00e+00 1.18e-01f  1
 147  8.6900404e+01 4.04e-03 2.88e+02 -11.0 5.65e+01    -  6.55e-09 1.00e+00f  1
 148  8.6369323e+01 3.94e-03 3.50e+02 -11.0 5.71e+02    -  1.00e+00 3.08e-02f  4
 149  9.6757642e+01 9.41e-03 2.51e+02  -9.2 4.84e+01  -4.6 1.00e+00 4.58e-01h  1
iter    objective    inf_pr   inf_du lg(mu)  ||d||  lg(rg) alpha_du alpha_pr  ls
 150  8.6444990e+01 2.08e-03 9.66e+01  -9.6 3.28e+01    -  4.80e-02 1.00e+00f  1
 151  8.6099367e+01 1.89e-03 8.55e+01 -11.0 4.87e+01    -  1.00e+00 1.18e-01f  2
 152  8.6453307e+01 1.38e-03 5.58e+00  -8.0 3.00e+00    -  1.00e+00 9.37e-01h  1
 153  8.5975617e+01 7.58e-04 4.72e+00  -8.1 1.77e+00    -  1.00e+00 1.00e+00f  1
 154  8.5964050e+01 4.38e-05 6.32e-01  -9.5 6.64e-01    -  1.00e+00 1.00e+00h  1
 155  8.5944496e+01 8.78e-06 2.18e-01 -10.4 1.34e-01    -  1.00e+00 1.00e+00h  1
 156  8.5925807e+01 2.28e-05 2.08e-01 -11.0 2.41e-01    -  1.00e+00 1.00e+00f  1
 157  8.5972085e+01 1.88e-06 7.58e-01 -11.0 1.99e+00    -  1.00e+00 1.00e+00H  1
 158  8.5896343e+01 1.59e-04 1.24e+00 -10.8 5.29e+00    -  1.00e+00 5.00e-01f  2
 159  8.9591716e+01 2.52e-04 6.28e+00 -10.9 1.05e+01    -  8.23e-01 1.00e+00H  1
iter    objective    inf_pr   inf_du lg(mu)  ||d||  lg(rg) alpha_du alpha_pr  ls
 160  8.5858207e+01 2.46e-03 5.13e+00 -11.0 9.01e+00    -  1.00e+00 1.00e+00f  1
 161  8.8485113e+01 1.87e-03 4.08e+00 -10.9 2.84e+00    -  1.00e+00 1.00e+00h  1
 162  8.5785448e+01 7.55e-04 3.29e+00 -10.9 3.16e+00    -  1.00e+00 1.00e+00f  1
 163  8.5815993e+01 2.75e-05 1.25e-01 -11.0 5.26e-01    -  1.00e+00 1.00e+00h  1
 164  8.5790423e+01 2.29e-06 7.33e-02 -11.0 9.70e-02    -  1.00e+00 1.00e+00f  1
 165  8.5788417e+01 2.61e-08 2.08e-02 -11.0 8.93e-02    -  1.00e+00 1.00e+00h  1
 166  8.5777087e+01 1.72e-06 1.43e-01 -11.0 9.18e-01    -  1.00e+00 1.00e+00f  1
 167  8.5771703e+01 3.38e-06 4.80e-01 -11.0 2.69e+01    -  1.00e+00 3.09e-02f  5
 168  8.5802859e+01 4.74e-06 1.00e+00 -11.0 6.54e+00    -  1.00e+00 1.00e+00H  1
 169  8.5767751e+01 6.29e-05 1.92e+00 -11.0 6.21e+01    -  1.00e+00 7.44e-02f  2
iter    objective    inf_pr   inf_du lg(mu)  ||d||  lg(rg) alpha_du alpha_pr  ls
 170  8.5746759e+01 6.68e-05 2.38e+00  -9.9 1.16e+02    -  1.00e+00 1.36e-02f  1
 171  8.5746554e+01 6.68e-05 2.96e+00  -9.3 6.14e+01    -  1.00e+00 1.75e-04h  1
 172  8.5742768e+01 6.67e-05 4.52e+00  -7.3 6.42e+01    -  1.00e+00 3.27e-03f  1
 173  8.5714298e+01 1.09e-04 2.92e+00  -9.3 1.16e+02    -  1.00e+00 3.12e-02f  6
 174  8.8470705e+01 2.44e-05 1.35e+01  -8.6 3.07e+01    -  1.00e+00 1.00e+00H  1
 175  8.7874260e+01 4.91e-03 1.13e+01  -8.7 6.22e+01    -  1.00e+00 5.00e-01f  2
 176  5.4694898e+02 3.35e-03 1.55e+02  -8.7 2.17e+01  -5.1 1.00e+00 1.00e+00H  1
 177  8.6948959e+01 3.55e-02 2.45e+02  -8.7 3.22e+01    -  4.57e-03 1.00e+00f  1
 178  8.6948805e+01 3.55e-02 2.45e+02  -8.7 4.03e+01    -  1.00e+00 5.08e-05h  1
 179  8.6695543e+01 3.52e-02 2.18e+02  -8.7 1.46e+02  -4.6 1.00e+00 3.12e-02f  6
iter    objective    inf_pr   inf_du lg(mu)  ||d||  lg(rg) alpha_du alpha_pr  ls
 180  8.6940145e+01 2.39e-02 1.16e+02  -8.7 6.57e+01  -5.1 1.00e+00 5.77e-01H  1
 181  8.6636110e+01 2.42e-02 1.23e+02  -8.7 3.17e+02  -5.6 1.00e+00 3.12e-02f  6
 182  1.2704517e+02 3.61e-03 7.15e+01  -8.7 6.07e+01    -  1.00e+00 1.00e+00H  1
 183  9.0127250e+01 4.62e-03 1.11e+02  -8.7 5.81e+01    -  1.00e+00 1.00e+00F  1
 184  8.7382829e+01 4.74e-03 1.11e+02  -8.7 7.30e+01    -  1.00e+00 1.25e-01f  4
In iteration 184, 1 Slack too small, adjusting variable bound
 185  8.6272565e+01 4.02e-03 8.27e+01  -8.7 1.78e+01    -  1.00e+00 2.57e-01f  1
 186  1.0278891e+02 3.40e-03 7.10e+01  -8.7 3.71e+01    -  1.00e+00 1.00e+00H  1
 187  9.0673117e+01 1.68e-03 6.08e+01  -8.7 8.36e+00    -  1.00e+00 1.00e+00f  1
 188  8.5982359e+01 3.73e-03 6.94e+01  -8.7 1.67e+01    -  1.00e+00 1.00e+00f  1
 189  9.4536490e+01 3.15e-04 3.16e+01  -8.7 1.37e+01    -  1.00e+00 1.00e+00H  1
iter    objective    inf_pr   inf_du lg(mu)  ||d||  lg(rg) alpha_du alpha_pr  ls
 190  8.5597670e+01 2.16e-03 2.90e+01  -8.7 1.25e+01    -  1.00e+00 1.00e+00f  1
 191  8.7063055e+01 3.51e-05 1.57e+00 -10.6 1.39e+00    -  1.00e+00 1.00e+00h  1
 192  8.5452720e+01 3.57e-05 7.72e-01 -10.2 1.47e+00    -  1.00e+00 1.00e+00f  1
 193  8.5450342e+01 1.28e-06 1.53e-01 -11.0 3.32e-02    -  1.00e+00 1.00e+00h  1
 194  8.5445764e+01 1.33e-05 1.37e-01 -11.0 1.38e-01    -  1.00e+00 1.00e+00h  1
 195  8.5443868e+01 1.44e-05 1.26e-01 -11.0 2.77e-01    -  1.00e+00 1.00e+00h  1
 196  8.5441640e+01 3.94e-05 7.63e-02 -11.0 4.40e-01    -  1.00e+00 1.00e+00h  1
 197  8.5521292e+01 1.68e-06 3.62e-01 -11.0 8.67e-01    -  1.00e+00 1.00e+00H  1
 198  8.5458011e+01 7.03e-05 2.97e-01 -11.0 5.17e-01    -  1.00e+00 1.00e+00f  1
 199  8.5458417e+01 5.07e-05 4.12e-01 -11.0 2.94e-01    -  1.00e+00 1.00e+00h  1
iter    objective    inf_pr   inf_du lg(mu)  ||d||  lg(rg) alpha_du alpha_pr  ls
 200  8.5423508e+01 1.67e-05 2.14e-01 -11.0 2.35e-01    -  1.00e+00 1.00e+00f  1
 201  8.5425578e+01 9.38e-07 1.99e-02 -11.0 9.41e-02    -  1.00e+00 1.00e+00h  1
 202  8.5421080e+01 1.17e-06 8.90e-03 -11.0 7.48e-02    -  1.00e+00 1.00e+00f  1
 203  8.5420531e+01 1.53e-07 6.89e-03 -11.0 4.28e-02    -  1.00e+00 1.00e+00h  1

Number of Iterations....: 203

                                   (scaled)                 (unscaled)
Objective...............:   8.5420530732148706e+01    8.5420530732148706e+01
Dual infeasibility......:   6.8925966893840229e-03    6.8925966893840229e-03
Constraint violation....:   1.5254980834100706e-07    1.5254980834100706e-07
Variable bound violation:   0.0000000000000000e+00    0.0000000000000000e+00
Complementarity.........:   1.0000025150786193e-11    1.0000025150786193e-11
Overall NLP error.......:   6.8925966893840229e-03    6.8925966893840229e-03


Number of objective function evaluations             = 393
Number of objective gradient evaluations             = 204
Number of equality constraint evaluations            = 393
Number of inequality constraint evaluations          = 393
Number of equality constraint Jacobian evaluations   = 204
Number of inequality constraint Jacobian evaluations = 204
Number of Lagrangian Hessian evaluations             = 0
Total seconds in IPOPT                               = 41.451

EXIT: Optimal Solution Found.
